
 102   30
  10   10   10   10   10   10   10   10   10   10   10   10   10   10   10   10   10   10   10   10   10   10   10   10   10   10   10   10   10   10

   0   0   0   0   0   0   0   0   0   0   0   0   0   0   0   0   0   0   0   0   0   0   0   0   0   0   0   0   0   0   0  31 2 3 4 5 6 7 8 9 10 11 12 14 15 16 17 18 19 20 21 22 24 25 26 27 28 29 30 35 39 41 45 
   4   0   0   0   0   1   0   0   0   0   0   0   0   0   0   0   0   0   0   0   0   0   0   0   0   0   0   0   0   0   0  17 101 75 74 69 63 62 60 58 55 48 46 44 43 40 36 33 23 
   3   0   0   6   0   0   0   0   1   0   0   0   0   0   0   0   0   0   3   0   0   0   0   0   0   0   0   0   4   0   0  11 101 72 66 60 58 55 53 52 47 42 13 
   3   0   0   0   0   0   0   0   0   0   0   0   0   0   0   0   0   0   0   0   0   0   0   1   0   0   0   0   4   0   0  18 101 100 96 75 74 69 67 62 61 60 56 54 52 48 46 44 43 23 
  10   0   0   0   0   0   0   0   0   0   5   0   0   1   0   0   0   0   6   1   0   1   0   0   0   1   0   0   0   0   0  13 91 75 74 68 65 50 49 48 44 40 38 33 31 
   7   0   0   3   0   0   1   0   0   0   0   4   0   0   0   0   0   0   0   0   0   0   0   0   0   7   0   0   4   0   2  21 101 100 97 95 75 74 72 69 68 67 66 60 59 57 56 55 52 48 47 46 42 
   7   0   0   0   0   6   6   0   0   0   0   0   0   0   0   0   0   0   0   0   0   0   0   0   0   0   0   1   0   1   0  12 100 96 91 74 66 65 58 47 44 43 34 31 
   2   0   0   0   0   0   0   0   0   0   0   6   0   0   0   0   0   0   0   0   3   0   0   0   0   0   1   0   0   0   0  12 101 91 74 73 72 60 51 47 46 43 34 33 
   5   0   0   0   0   3   0   0   0   0   5   0   0   0   0   0   0   0   0   0   0   0   0   0   0   5   0   0   0   0   0  13 101 99 95 73 68 66 63 57 52 49 43 38 34 
   2   0   2   0   0   9   0   0   0   1   0  10   0   0   0   0   0   0   0   0   0   0   1   0   0   6   0   0   0   0   0  12 94 91 72 69 58 57 54 50 47 44 37 34 
   7   3   3   7   0   0   0   0   0   5   0   7   0   0   0   0   0   0   5   0   0   0   0   0   0   0   9   0   0   0   0   9 100 74 65 63 57 48 44 43 23 
   1   0   0   0   0   0   0   0   0   0   0   0   0   0   0   0   0   0   0   0   0   0   0   0   1   0   0   0   0   0   0  22 100 97 96 95 93 92 85 75 74 73 72 70 68 67 66 65 64 63 60 59 56 48 
   5   0   8   0   0   0   8   0   0   0   0   0   0   0   0   0   0   0   4   0   0   0   0   0   0   0   0   0   0   0   7   8 74 73 65 63 57 49 34 33 
   5   0   5   5   0   9   0   0   5   0   0   0   2   0   0   0   0   1   8   7   0   0   9   9   0   0   0   0   0   0   4  12 100 95 75 66 65 60 56 55 52 47 43 34 
   1   0   0   0   0   0   0   0   0   0  10   0   0   0   0   0   0   0   0   7   0   0   0   0   0   0   0   0   0   0   0  15 101 100 96 94 91 90 71 69 67 66 55 52 47 46 44 
  10   0   0   0   0   0   7   0   0   0   0   0   0   0   0   1   0   0   4   0   0   0   0   6   0   0   0   0   4   0   0  19 99 98 97 94 93 92 91 88 73 72 66 65 64 59 58 57 54 49 47 
   8   8   0   0   0   0   0   0   0   8   0   0   0   0   0   0   0   0   0   0   0   0   8   0   0   0   6   0   0   6   4  17 100 97 95 94 92 85 75 72 68 66 64 63 59 54 49 47 46 
   9   0   1   0   0   0   0   0   0   0   0   0   0   0   0   0   0   0   0   0   0   0   0   0   0   0   0   0   0   0   0  15 101 99 98 95 94 88 71 68 65 64 63 55 49 47 38 
   3   0   0   0   0   0   0   0   0   0   0   0   0   0   0   0   0   0   0   0   0   0   0   0   0   0   0   0   0   0   4  12 96 94 74 73 69 68 63 62 59 58 49 32 
   1   0   3   0   0   0   0   0   0   4   0   0   0   0   0   0   0   0   0   0   0  10   0   0   0   0   0   0   0   0   0  17 101 99 95 91 90 89 88 87 86 85 74 71 65 62 60 55 43 
   9   0   9   0   0   0   0   0   0   0   0   0   0   0   0   5   2   0   0   0   0   0   0   0   0   0   0   7   0   0   0  20 101 100 99 96 95 94 93 92 91 90 88 86 74 72 71 68 66 59 55 51 
   6   0   0   0   0   0   5   1   0   0   0   0   0   0   0   0   8   6   0   0   0   0   0   0   0   0   0   9   0   0   0  18 100 98 97 93 92 91 89 88 86 85 74 73 71 64 62 60 59 58 
   6   0   0   0   0   0   0   0   0   0   0   0   0   0   0   9   0   0   6   0   0   0   0   0   0   0   6   0   0   0   0  16 99 98 97 95 94 93 91 90 86 85 73 72 66 64 59 50 
   1   0   0   7   0   0   0   0   0   0   0   5   0   8   0   0   0   0   0   0   0   0   0   0   9   0   3   0   0   0   0  15 101 96 94 93 92 89 85 82 74 72 67 64 63 58 54 
   4   0   0   0   2   0   5   0   0   0   0   0   0   8   0  10   0   0   0   0   0   7   0   0   0   0   0   0   0   0   0  13 100 97 96 93 87 86 85 72 70 65 63 59 48 
   6   0   0   0   0   0   0   0   4   0   4   0   0   0   0   8   0   0   0   0   0   0   9   0   0   0   0   0   0   0   0  12 101 97 95 92 91 89 85 73 66 64 62 46 
   1   0   0   0   7   0   0   0   0   0   0   0   0   0   2   0   0   0   0   0   0   0   0   0   0   0   0   0   0   6   0  18 101 97 96 94 93 92 91 89 88 86 85 83 82 81 73 64 62 54 
   1   0   8   0   0   0   0   0   0   0   0   0   0   0   0   0   0   0   0   0   0   4   0   0   0   0   0   0   0   0   0  11 96 94 92 91 90 88 83 82 70 69 44 
   6   0   0   0   0   0   0   0   0  10   0   0   0   7   0   0   0   0   0   0   0   0   0   0   0   0   0   0   0   0   0  16 97 96 94 93 92 90 88 86 82 72 70 68 65 64 63 59 
  10   0   0   0   0   0   8   0   0   0   0   0   0   0   0   0   0   0   0   0   0   0   0   9   0   9   0   0   0   7   0  15 101 100 94 91 90 89 87 82 74 73 72 68 64 59 57 
   5   0   0   0   0   0   0   0   0   0   0   0   0   0   0   0   0   0   4   0   4   0   0   4   0   0   0   0   5   0   0  11 101 98 97 92 89 88 83 59 55 54 52 
   3   0   0   8   0   0   0   0   0   0   0   0   0   0   0   7   0   0   0   0   0   0   0   0   0   0   0   0   0   0   0  12 98 95 93 91 90 88 77 75 72 71 64 47 
   7   0   0   0   0   0   0   0   0   0   0   0   0   5   0   0   0   0   0   0   0   0   0   5  10   0   5   0  10   0   0  14 100 99 97 96 95 94 92 89 87 84 70 64 59 54 
   1   0   0   0   0   0   0   0   0   7   0   0   0   0   0   0   0   0   0   0   0   0   0   0   0   0   0   0   6   0  10  14 98 93 92 90 88 87 85 84 82 81 80 71 67 62 
   2   0   0   0   0   0   0   0   0   0   0   7   0   0   0   0   0   0   0   0   0   0   7   0   0   5   0   0   7   0   0  13 96 91 90 89 88 86 84 83 82 80 76 69 59 
   9   0   0   0   0   0   0   0   0   0   0   0   0   0   7   0   0   0   0   0   0   0   0   0   0   0   0   0   0   0   0  11 97 95 91 87 86 82 81 78 73 65 57 
   3   0   0   0   0   0   0   0   0   0   0   0   0   0   6   0   0   0   0   0   0   7   0   0   4   0   6   0   0   0   6  12 97 96 93 92 88 87 85 83 82 75 64 59 
   8   0   0   0   0   0   5   0   0   0   7   0   0   0   0   0   0   0   2   0   0   0   0   0   0   0   0   0   0   9   0  12 100 96 93 92 90 87 86 85 83 82 72 62 
   9   0   0   5   0   0   0   4   9   0   0   0   0   0   0   0   0   0   3   0   0   0   0   8   0   0   0   0   0   4   0  11 95 93 91 90 88 82 81 79 68 65 64 
   2   0   0   0   0   0   0   7   0   0   0   0   0   0   6   7   0   0   0   0   0   0   0   0   0   0   0   0   0   0   0   7 94 92 88 80 76 59 47 
   7   0   0   0   8   0   0   0   0   0   0   0   6   0   0   0   0   0   0   0   9   0   0   1   0   6   0   0   0   0   0  11 98 96 94 92 91 85 83 82 81 64 62 
   4   0   0   0   0   0   0   0   0   0   0   0   0   0   0   7   0   9   0   0   0   0   0   0   0   0   0  10   0   0   0  10 98 92 91 89 87 86 83 71 64 62 
   2   0   0   7   0   0   0   0  10   0   0   0   0   0   6   0   0   0   0   0   0   0   0   0   0   0   7   0   0   0   0   8 98 97 94 93 92 70 64 59 
   2   0   0   0   0   0   0   0   0   0   0   0   0   5   0   0   0   0   0   8   0   0   0   0   0   9   0   0   0   0   0   8 97 95 89 87 84 73 64 59 
   2   0   0   0   0   0   0   0   0   0   0   0   0   0   3   0   0   0   0   0   0   0   0   0   0   0   0   0   0   0   0  13 101 99 95 92 89 86 83 82 80 79 78 77 76 
   2   0   0   0   0   0   0   0   0   0   0   0   0   0   0   0   0   0   0   0   0   0   5   0   0   0   8   0   5   0   0  10 99 93 88 86 81 80 77 76 70 65 
   9   0  10   0   8   0   0   5   6   0   0   0   0   5   0   6   0   0   0   0   0   0   0   0   0   0   0   0   0   0   0   8 89 86 84 83 82 81 79 70 
   4   7   0   2   0   7   0   0   0   0   0   0   0   0   0   0   0   0   0   0   0   0   0   7   0   0   0   0   0   6   0   8 99 98 90 88 82 81 76 71 
   9   0   0   0   0   0   0   0   0   5   0   0   0   0   0   5   0   0   0   8   0   0   0   0   0   0   0   0   7   0   6   7 90 84 82 80 79 77 70 
   6   0   0   0   0   6   0   6   0   0   0   0   0   0   0   0   0   4   0   6   0   0   5   0   0   0   0   0   0   0   0   7 89 88 87 83 78 77 71 
   5   0   0   0   0   6   0   0   0   0   0   0   0   0   0   0   0   0   0   0   0   0   0   0   0   0   0   0   0   0   0   7 89 87 85 83 81 79 70 
  10   0   0   0   0   0   6   0   0   0   0   0   0   8   0   0   0   0   9   0   0   0   0   8   0   0   7   5   0   6   0   7 86 85 84 81 78 77 76 
   6   0   0   0   0   0   0   0   0   0   0   7   0   0   6   0   0   0   0  10   0   0   0   5   0   0   0   0   0   0   0   7 92 88 85 82 79 78 77 
   1   0   0   0   0   0   0   0   0   0   0   0   0   0   0   4   0   0   0   0   0   0   0   0   0   0   8   0   0   0   0   5 90 80 77 76 71 
   5   0   0   0   0   0   0   0   0   0   0   0   0   0   0   0   0   0   0   0   0   0   0   0   0   6   0   0   0   0   0   5 82 80 77 76 70 
   1   0   0   0   0   0   0   7   0   0   0   0   0   0   0   0   0   0   6   0   4   0   0   0   0   0   0   0   0   4   0   5 99 88 84 76 71 
   3   0   0   7   0   0   0   0   0   3   0   0   0   0   0   0  10   0   0   0   0   0   0   8   0   0   0   0   0   0   0   5 96 85 80 77 76 
   7   0   0   0   0   0   0   0   0   0   0   5   0   0   0   0   0   0   0   0   9   0   0   0   0   0   7   0   0   0   0   5 95 87 84 81 76 
   7   0   0   0   5   0   0   0   0  10   0   4   0   0   0   0   0   0   0   0   0   0   0   0   0   0   0   0   0   7   5   4 81 79 78 77 
  10   0   0   0   0   0   0   0   0   0   0   0   0   0   0   0   0   0   0   0   0   0   0   0   0   0   0   0   0   0   7   4 94 83 82 81 
   2   7   0   0   0   4   0   0   0   0   0   0   0   0   0   0   3   0   0   0   0   0   0   0   0   0   0   0   0   0   0   4 93 89 80 76 
   1   0   0   0   0   0   0   0   6   5   5   0   0   0   0   0   6   0   0   0   0   0   0   0   0   0   4   0   0   4   0   3 77 76 70 
   8   0   0   0   0   0   0   0   0   0   0   0   0   0   0   0   0   0   0   0   0   0   0   0   0   0   0   0   0   0   0   3 91 81 80 
   2   0   0   0   0   6   0   0   0   0   0   0   0  10   0   0   0   0   0   0   0   0   0   0   0   0   0   0   0   0   0   2 80 76 
  10   0   0   0   0   0   0   0   0   3   0   0   0   6   0   0   0   0   0   0   0   0   0   0   0   0   0   0   0   0   0   2 84 83 
   3   0   0   3   0   0   0   0   3   0   0   0   0   0  10   0   0   0   0   0   8   0   0   0   0   0   0   0   0   0   0   2 87 82 
   4   0   0   0   0   0   0   0   0   0   0   0   0   0   0   0   0   0  10   9   3   0   0   0   0   0   0   0   0  10   0   2 86 79 
   1   0   0   0   0   0   0   0   0   0   0   0   0   5   0   2   0   0   8   0   0   0   7   0   9   0   0   4   0   5   0   2 78 77 
   2   6   0   0  10   0   0   0   0   6   0   0   0   0   0   0   0   0   0   0   0   0   0   0   0   0   0   0   0   0   0   2 87 85 
   8   0   0   0   0   0   0   0   0   0   0   0   8   0   0   0   4   0   0   0   9   0   0   0   0   0   0   0   0   0   8   1 78 
   7   0   0   0   0   8   0   0   0   0   0   0   0   0   0   3   0   0   0   0   0   7   0   6   0   0   0   4   0   0   0   1 79 
   3   0   0   0   0   0   0   0   0   0   0   6   0   0   6   0   0   0   0   8   4   0   0   0   7   0   9   0   0   0   0   1 84 
   3   0   7   0   0   0   0   7   0   0   0   0   0   0   0   9   0   0   0   0   0   0   0   0   0   0   0   8   0   8   0   1 79 
   1   5   0   5   0   0   0   0   0   0   0   0   0   6   0   0   0   0   0   0   0   0   0   0   3   0   0   9   0   0   7   1 83 
   4   0   0   0   0   0   7   0   0  10   0   4   0   0   0   0   0   8   0   0   0   0   0   0   0   0   0   0   0   0   0   1 80 
   6   0   0   0   4   0   0   0   0   0   0   0   0   0   0   0   0   0   9   0   0   0   0   0   3   0   0   0   0   0   0   1 102
   3  10   0   0   0   0   0   0   0   0   0   0   0   0   0   0   0   0  10   0   6   0   0   4   0   0   5   5   0   0   0   1 102
   8   0   6  10   0   0   0   0   0   0   0   0  10   0   0   0   0   0   0   3   0   0   0   0   0   0   0   8   0   0   0   1 102
   1   0   0   0   6   0   0   0   0   0   0   5   0   0   0   0   0   0   0   0   0   0   0   6   0   0   0   0   0   0   0   1 102
   6   0   0   9   0   7   8   0   0   0   0   0   0   0   8   0   0   0   0   4   0   0   0   0   0   0   0   0   0   6   0   1 102
  10   0   6   0   0   0   0   0   7   0   6   0   0   7   0   0   0   6   0   0   0   0   0   0   0   0   0   0   0   0   0   1 102
   6   0  10   0   8   0   0   0   0   0   0   0   0   5   0   0   0   0   0   0   0   0   0   0   0   0   6   0   7   0   5   1 102
   8   0   0   0   0   0   0   0   0   0   0   0   0   0   0   0   0   0   7   0   0   0   2   0   8   0   0   0   0   0   0   1 102
   5   0   0   0   0   0   0   7   0   0   0   0   0   4   0   0   0   0   0   0   0   0   0   0   0   0   0   0   0   0   0   1 102
   8   0   0   0   0   0   0   0   0   0   0   0   0   0   0   0   0   0   3   0   0   0   0   0   6   0   0   0   0   0   5   1 102
   6   0   0   0   4   0   0   0   0   0   0   0   0   0   0   0   0   0   7   0   6   0   0   0   6   0   0   0   0   0   6   1 102
   3   0   0   0   0   0   0   0   0   0   6   0   0   0   0   7   0   0   0   0   0   0   0   0   0   0   0   6   0   0   6   1 102
   1   5   0   0   0   0   0   0   0   0   0   0   0   0   0   0   9   0   0   3   0   0   0   9   6   0   6   0   7   0  10   1 102
   8   2   0   0   0   0   0   0   0   0   0   0   0   0   4   0   0   0   0   0   6   0   0   5   0   0   0   0   0   0   0   1 102
   1   0   0   0   0   0   0   0   0   0   0   0   0   0   0   0   0  10   0   0   0   0   0   0   0   0   0   0   0   7   3   1 102
   5   0   0   0   0   0   0   0   0   0   0   0   0   0   0   0   0   0   0   0   0   0   0   0   0   7   0   0   8   0  10   1 102
   8   0   0   0   0   0   0   0   0   0   0   0   0   0   0   0   0   0   0   0   3   0   0   0   0   0   0   0   0   0   0   1 102
   7   0   0   0   0   6   0   0   0   0   0   0   0   0   0   0   0   0   0   0   0   0   0   0   0   0   0   0   5   0   0   1 102
   8   0   0   0   0   0   0   0   0   0   0   0   0   0   4   0   0   0   0   0   0   0   0   0   0   0   0   0   0   0   0   1 102
   3   0   0   0   2   0   0   0   0   0   0   0   0   0   0   0   0   0   0   0   0   0   7   7   0   0   5   4   0   5   0   1 102
   6   0   6   0   0   0   0   0   7   0   0   0   0   0   0   0   0   0   0   0   0   0   0   0   0   0   0   0   0   0   0   1 102
   9   7   0   4   6   0   0   0   0   0   6   0   5   6   0   0   0   0   0   0  10   6   0   0   0   0   0   0   0   0   4   1 102
   9   0   0   0   8   0   0   7   0   0   0   8   5   0   0   0   0   0   0   4   0   0   0   0   0   0   0   4   0   0   0   1 102
   5   0   0   8   0   0   0   0   8   0   0   0   0   0   0   0   0   0   0   0   0   0   0   0   0   0   0   0   0   7   0   1 102
   7   0   0   0   0   0   0   0   0   7   0   0   0   0   0   0   6   4   0   0   0   0   0   0   0   5   0   0   7   0   7   1 102
   3   0   0   0   0   0   0   9   0   0   0   0   0   0  10   0   0   0   0   0   0   0   0   0   0   0   0   0   0   0   0   1 102
   0   0   0   0   0   0   0   0   0   0   0   0   0   0   0   0   0   0   0   0   0   0   0   0   0   0   0   0   0   0   0   0 
